1d8665af07044801a22a013dc75c553d-pulp.sol
Optimal - objective value -24.89669623
      0 C0000000               0                       0
      1 C0000001               0                      80
      0 X0000000               1              -20.856199
      1 X0000001               1              -4.0404973
      2 X0000002               0              0.11570162
      3 X0000003               0                       0
